p cnf 361 1
361 0
w 1 0.0499541
w 2 1 0
w 2 -1 1
w 3 2 0.0217971
w 3 -2 0.148466
w 4 3 1
w 4 -3 0
w 5 4 0.470017
w 5 -4 0.450481
w 6 5 1
w 6 -5 0
w 7 6 1
w 7 -6 0
w 8 7 0
w 8 -7 1
w 9 8 1
w 9 -8 0
w 10 9 0.644227
w 10 -9 0.82962
w 11 10 0.104274
w 11 -10 0.549655
w 12 11 0
w 12 -11 1
w 13 12 0
w 13 -12 1
w 14 13 0.227828
w 14 -13 0.438862
w 15 14 1
w 15 -14 0
w 16 15 0
w 16 -15 1
w 17 16 0
w 17 -16 1
w 18 17 0
w 18 -17 1
w 19 18 1
w 19 -18 0
w 20 1 1
w 20 -1 0
w 21 20 2 0
w 21 20 -2 0
w 21 -20 2 1
w 21 -20 -2 0
w 22 21 3 1
w 22 21 -3 1
w 22 -21 3 1
w 22 -21 -3 0
w 23 22 4 1
w 23 22 -4 1
w 23 -22 4 0
w 23 -22 -4 1
w 24 23 5 0
w 24 23 -5 0
w 24 -23 5 1
w 24 -23 -5 0
w 25 24 6 0.339959
w 25 24 -6 0.925669
w 25 -24 6 0.10344
w 25 -24 -6 0.24452
w 26 25 7 0
w 26 25 -7 0
w 26 -25 7 0
w 26 -25 -7 1
w 27 26 8 0
w 27 26 -8 0
w 27 -26 8 0
w 27 -26 -8 1
w 28 27 9 0.75179
w 28 27 -9 0.985348
w 28 -27 9 0.281984
w 28 -27 -9 0.971388
w 29 28 10 0.799114
w 29 28 -10 0.740642
w 29 -28 10 0.946309
w 29 -28 -10 0.6313
w 30 29 11 1
w 30 29 -11 1
w 30 -29 11 0
w 30 -29 -11 0
w 31 30 12 0
w 31 30 -12 0
w 31 -30 12 1
w 31 -30 -12 0
w 32 31 13 0
w 32 31 -13 0
w 32 -31 13 1
w 32 -31 -13 0
w 33 32 14 0.0833434
w 33 32 -14 0.699212
w 33 -32 14 0.891584
w 33 -32 -14 0.445156
w 34 33 15 0
w 34 33 -15 0
w 34 -33 15 1
w 34 -33 -15 0
w 35 34 16 0
w 35 34 -16 1
w 35 -34 16 1
w 35 -34 -16 1
w 36 35 17 1
w 36 35 -17 0
w 36 -35 17 1
w 36 -35 -17 1
w 37 36 18 0
w 37 36 -18 1
w 37 -36 18 1
w 37 -36 -18 1
w 38 37 19 0.335234
w 38 37 -19 0.471392
w 38 -37 19 0.895456
w 38 -37 -19 0.0432159
w 39 20 1
w 39 -20 0
w 40 39 21 0
w 40 39 -21 1
w 40 -39 21 1
w 40 -39 -21 0
w 41 40 22 1
w 41 40 -22 1
w 41 -40 22 0
w 41 -40 -22 0
w 42 41 23 1
w 42 41 -23 0
w 42 -41 23 0
w 42 -41 -23 1
w 43 42 24 0.993066
w 43 42 -24 0.574044
w 43 -42 24 0.653349
w 43 -42 -24 0.395052
w 44 43 25 1
w 44 43 -25 1
w 44 -43 25 1
w 44 -43 -25 0
w 45 44 26 0.955336
w 45 44 -26 0.764422
w 45 -44 26 0.0198522
w 45 -44 -26 0.160474
w 46 45 27 1
w 46 45 -27 0
w 46 -45 27 0
w 46 -45 -27 1
w 47 46 28 0
w 47 46 -28 0
w 47 -46 28 1
w 47 -46 -28 1
w 48 47 29 0
w 48 47 -29 0
w 48 -47 29 1
w 48 -47 -29 1
w 49 48 30 1
w 49 48 -30 0
w 49 -48 30 0
w 49 -48 -30 0
w 50 49 31 1
w 50 49 -31 1
w 50 -49 31 0
w 50 -49 -31 1
w 51 50 32 1
w 51 50 -32 0
w 51 -50 32 1
w 51 -50 -32 1
w 52 51 33 0.883797
w 52 51 -33 0.102529
w 52 -51 33 0.865418
w 52 -51 -33 0.601924
w 53 52 34 0.233348
w 53 52 -34 0.0887123
w 53 -52 34 0.668154
w 53 -52 -34 0.98281
w 54 53 35 0
w 54 53 -35 0
w 54 -53 35 0
w 54 -53 -35 1
w 55 54 36 0
w 55 54 -36 1
w 55 -54 36 0
w 55 -54 -36 0
w 56 55 37 0.306118
w 56 55 -37 0.488112
w 56 -55 37 0.540254
w 56 -55 -37 0.228013
w 57 56 38 0
w 57 56 -38 1
w 57 -56 38 1
w 57 -56 -38 0
w 58 39 0
w 58 -39 1
w 59 58 40 0.245479
w 59 58 -40 0.196156
w 59 -58 40 0.480892
w 59 -58 -40 0.00157583
w 60 59 41 1
w 60 59 -41 0
w 60 -59 41 0
w 60 -59 -41 1
w 61 60 42 0.367928
w 61 60 -42 0.864359
w 61 -60 42 0.949194
w 61 -60 -42 0.992796
w 62 61 43 0.649057
w 62 61 -43 0.860963
w 62 -61 43 0.533022
w 62 -61 -43 0.448415
w 63 62 44 1
w 63 62 -44 0
w 63 -62 44 0
w 63 -62 -44 0
w 64 63 45 1
w 64 63 -45 0
w 64 -63 45 1
w 64 -63 -45 0
w 65 64 46 0
w 65 64 -46 1
w 65 -64 46 0
w 65 -64 -46 0
w 66 65 47 0
w 66 65 -47 0
w 66 -65 47 1
w 66 -65 -47 1
w 67 66 48 0
w 67 66 -48 1
w 67 -66 48 1
w 67 -66 -48 0
w 68 67 49 0
w 68 67 -49 1
w 68 -67 49 1
w 68 -67 -49 0
w 69 68 50 1
w 69 68 -50 1
w 69 -68 50 1
w 69 -68 -50 0
w 70 69 51 1
w 70 69 -51 0
w 70 -69 51 0
w 70 -69 -51 1
w 71 70 52 0
w 71 70 -52 1
w 71 -70 52 0
w 71 -70 -52 1
w 72 71 53 0.930445
w 72 71 -53 0.259976
w 72 -71 53 0.904502
w 72 -71 -53 0.183642
w 73 72 54 0.265737
w 73 72 -54 0.301197
w 73 -72 54 0.236863
w 73 -72 -54 0.619769
w 74 73 55 0
w 74 73 -55 0
w 74 -73 55 1
w 74 -73 -55 1
w 75 74 56 0
w 75 74 -56 1
w 75 -74 56 0
w 75 -74 -56 0
w 76 75 57 0
w 76 75 -57 1
w 76 -75 57 1
w 76 -75 -57 0
w 77 58 1
w 77 -58 0
w 78 77 59 1
w 78 77 -59 0
w 78 -77 59 0
w 78 -77 -59 0
w 79 78 60 1
w 79 78 -60 1
w 79 -78 60 0
w 79 -78 -60 0
w 80 79 61 0
w 80 79 -61 1
w 80 -79 61 1
w 80 -79 -61 0
w 81 80 62 0
w 81 80 -62 0
w 81 -80 62 1
w 81 -80 -62 1
w 82 81 63 0
w 82 81 -63 1
w 82 -81 63 0
w 82 -81 -63 1
w 83 82 64 1
w 83 82 -64 0
w 83 -82 64 0
w 83 -82 -64 1
w 84 83 65 1
w 84 83 -65 1
w 84 -83 65 0
w 84 -83 -65 1
w 85 84 66 0
w 85 84 -66 0
w 85 -84 66 1
w 85 -84 -66 0
w 86 85 67 0
w 86 85 -67 0
w 86 -85 67 0
w 86 -85 -67 1
w 87 86 68 0.368138
w 87 86 -68 0.273332
w 87 -86 68 0.322144
w 87 -86 -68 0.599002
w 88 87 69 1
w 88 87 -69 0
w 88 -87 69 1
w 88 -87 -69 0
w 89 88 70 1
w 89 88 -70 1
w 89 -88 70 0
w 89 -88 -70 1
w 90 89 71 0
w 90 89 -71 1
w 90 -89 71 0
w 90 -89 -71 0
w 91 90 72 0
w 91 90 -72 1
w 91 -90 72 0
w 91 -90 -72 1
w 92 91 73 0
w 92 91 -73 1
w 92 -91 73 0
w 92 -91 -73 0
w 93 92 74 1
w 93 92 -74 1
w 93 -92 74 1
w 93 -92 -74 0
w 94 93 75 1
w 94 93 -75 0
w 94 -93 75 1
w 94 -93 -75 1
w 95 94 76 0.885712
w 95 94 -76 0.474098
w 95 -94 76 0.320657
w 95 -94 -76 0.738611
w 96 77 0
w 96 -77 1
w 97 96 78 1
w 97 96 -78 0
w 97 -96 78 0
w 97 -96 -78 1
w 98 97 79 0
w 98 97 -79 1
w 98 -97 79 1
w 98 -97 -79 0
w 99 98 80 1
w 99 98 -80 0
w 99 -98 80 0
w 99 -98 -80 1
w 100 99 81 0.460787
w 100 99 -81 0.235568
w 100 -99 81 0.164214
w 100 -99 -81 0.468527
w 101 100 82 0
w 101 100 -82 1
w 101 -100 82 1
w 101 -100 -82 0
w 102 101 83 1
w 102 101 -83 0
w 102 -101 83 1
w 102 -101 -83 1
w 103 102 84 0
w 103 102 -84 0
w 103 -102 84 0
w 103 -102 -84 1
w 104 103 85 0
w 104 103 -85 1
w 104 -103 85 1
w 104 -103 -85 0
w 105 104 86 0
w 105 104 -86 1
w 105 -104 86 1
w 105 -104 -86 1
w 106 105 87 0
w 106 105 -87 1
w 106 -105 87 0
w 106 -105 -87 0
w 107 106 88 0
w 107 106 -88 1
w 107 -106 88 0
w 107 -106 -88 0
w 108 107 89 0
w 108 107 -89 0
w 108 -107 89 1
w 108 -107 -89 1
w 109 108 90 0
w 109 108 -90 1
w 109 -108 90 0
w 109 -108 -90 1
w 110 109 91 0
w 110 109 -91 1
w 110 -109 91 0
w 110 -109 -91 0
w 111 110 92 1
w 111 110 -92 0
w 111 -110 92 0
w 111 -110 -92 0
w 112 111 93 0
w 112 111 -93 1
w 112 -111 93 0
w 112 -111 -93 0
w 113 112 94 0
w 113 112 -94 1
w 113 -112 94 1
w 113 -112 -94 0
w 114 113 95 1
w 114 113 -95 0
w 114 -113 95 1
w 114 -113 -95 0
w 115 96 1
w 115 -96 0
w 116 115 97 0
w 116 115 -97 0
w 116 -115 97 1
w 116 -115 -97 1
w 117 116 98 1
w 117 116 -98 1
w 117 -116 98 1
w 117 -116 -98 0
w 118 117 99 1
w 118 117 -99 0
w 118 -117 99 1
w 118 -117 -99 0
w 119 118 100 0
w 119 118 -100 0
w 119 -118 100 1
w 119 -118 -100 1
w 120 119 101 0.511277
w 120 119 -101 0.10189
w 120 -119 101 0.0785466
w 120 -119 -101 0.744568
w 121 120 102 0
w 121 120 -102 0
w 121 -120 102 1
w 121 -120 -102 0
w 122 121 103 1
w 122 121 -103 1
w 122 -121 103 0
w 122 -121 -103 0
w 123 122 104 0
w 123 122 -104 1
w 123 -122 104 1
w 123 -122 -104 0
w 124 123 105 0
w 124 123 -105 1
w 124 -123 105 1
w 124 -123 -105 1
w 125 124 106 0.250944
w 125 124 -106 0.0357648
w 125 -124 106 0.359784
w 125 -124 -106 0.115434
w 126 125 107 1
w 126 125 -107 1
w 126 -125 107 0
w 126 -125 -107 0
w 127 126 108 1
w 127 126 -108 0
w 127 -126 108 1
w 127 -126 -108 0
w 128 127 109 0.168254
w 128 127 -109 0.596024
w 128 -127 109 0.0252475
w 128 -127 -109 0.361024
w 129 128 110 0
w 129 128 -110 1
w 129 -128 110 0
w 129 -128 -110 1
w 130 129 111 0.395054
w 130 129 -111 0.154588
w 130 -129 111 0.956418
w 130 -129 -111 0.902222
w 131 130 112 0.714602
w 131 130 -112 0.153166
w 131 -130 112 0.88791
w 131 -130 -112 0.0743864
w 132 131 113 0
w 132 131 -113 1
w 132 -131 113 1
w 132 -131 -113 1
w 133 132 114 0
w 133 132 -114 1
w 133 -132 114 0
w 133 -132 -114 0
w 134 115 1
w 134 -115 0
w 135 134 116 0
w 135 134 -116 0
w 135 -134 116 1
w 135 -134 -116 1
w 136 135 117 1
w 136 135 -117 1
w 136 -135 117 0
w 136 -135 -117 1
w 137 136 118 0
w 137 136 -118 0
w 137 -136 118 1
w 137 -136 -118 0
w 138 137 119 1
w 138 137 -119 1
w 138 -137 119 0
w 138 -137 -119 0
w 139 138 120 0
w 139 138 -120 0
w 139 -138 120 1
w 139 -138 -120 1
w 140 139 121 1
w 140 139 -121 0
w 140 -139 121 1
w 140 -139 -121 1
w 141 140 122 0.770232
w 141 140 -122 0.890484
w 141 -140 122 0.488733
w 141 -140 -122 0.956301
w 142 141 123 0
w 142 141 -123 0
w 142 -141 123 1
w 142 -141 -123 1
w 143 142 124 0.146641
w 143 142 -124 0.595006
w 143 -142 124 0.487323
w 143 -142 -124 0.785026
w 144 143 125 0.200591
w 144 143 -125 0.692009
w 144 -143 125 0.0217232
w 144 -143 -125 0.235359
w 145 144 126 1
w 145 144 -126 0
w 145 -144 126 1
w 145 -144 -126 0
w 146 145 127 0
w 146 145 -127 0
w 146 -145 127 0
w 146 -145 -127 1
w 147 146 128 0
w 147 146 -128 1
w 147 -146 128 0
w 147 -146 -128 1
w 148 147 129 0
w 148 147 -129 0
w 148 -147 129 0
w 148 -147 -129 1
w 149 148 130 1
w 149 148 -130 1
w 149 -148 130 0
w 149 -148 -130 1
w 150 149 131 0
w 150 149 -131 0
w 150 -149 131 0
w 150 -149 -131 1
w 151 150 132 0.212723
w 151 150 -132 0.345264
w 151 -150 132 0.725978
w 151 -150 -132 0.918473
w 152 151 133 0.194891
w 152 151 -133 0.463015
w 152 -151 133 0.851633
w 152 -151 -133 0.228654
w 153 134 0.494891
w 153 -134 0.152901
w 154 153 135 0.0944502
w 154 153 -135 0.155575
w 154 -153 135 0.620934
w 154 -153 -135 0.618171
w 155 154 136 0.645584
w 155 154 -136 0.990334
w 155 -154 136 0.630409
w 155 -154 -136 0.265241
w 156 155 137 0.226172
w 156 155 -137 0.689529
w 156 -155 137 0.909896
w 156 -155 -137 0.513945
w 157 156 138 1
w 157 156 -138 1
w 157 -156 138 0
w 157 -156 -138 0
w 158 157 139 1
w 158 157 -139 0
w 158 -157 139 0
w 158 -157 -139 1
w 159 158 140 0.471526
w 159 158 -140 0.198799
w 159 -158 140 0.721469
w 159 -158 -140 0.966418
w 160 159 141 1
w 160 159 -141 0
w 160 -159 141 1
w 160 -159 -141 1
w 161 160 142 0
w 161 160 -142 0
w 161 -160 142 0
w 161 -160 -142 1
w 162 161 143 0
w 162 161 -143 0
w 162 -161 143 0
w 162 -161 -143 1
w 163 162 144 1
w 163 162 -144 1
w 163 -162 144 0
w 163 -162 -144 1
w 164 163 145 0
w 164 163 -145 0
w 164 -163 145 1
w 164 -163 -145 0
w 165 164 146 1
w 165 164 -146 1
w 165 -164 146 0
w 165 -164 -146 1
w 166 165 147 0
w 166 165 -147 1
w 166 -165 147 1
w 166 -165 -147 1
w 167 166 148 0
w 167 166 -148 1
w 167 -166 148 1
w 167 -166 -148 1
w 168 167 149 1
w 168 167 -149 0
w 168 -167 149 0
w 168 -167 -149 1
w 169 168 150 1
w 169 168 -150 1
w 169 -168 150 1
w 169 -168 -150 0
w 170 169 151 1
w 170 169 -151 1
w 170 -169 151 0
w 170 -169 -151 1
w 171 170 152 1
w 171 170 -152 0
w 171 -170 152 1
w 171 -170 -152 1
w 172 153 0
w 172 -153 1
w 173 172 154 0
w 173 172 -154 1
w 173 -172 154 1
w 173 -172 -154 1
w 174 173 155 0
w 174 173 -155 0
w 174 -173 155 1
w 174 -173 -155 1
w 175 174 156 1
w 175 174 -156 0
w 175 -174 156 1
w 175 -174 -156 1
w 176 175 157 0
w 176 175 -157 1
w 176 -175 157 0
w 176 -175 -157 1
w 177 176 158 0.847595
w 177 176 -158 0.3015
w 177 -176 158 0.0889156
w 177 -176 -158 0.422357
w 178 177 159 1
w 178 177 -159 0
w 178 -177 159 0
w 178 -177 -159 1
w 179 178 160 0
w 179 178 -160 0
w 179 -178 160 0
w 179 -178 -160 1
w 180 179 161 0
w 180 179 -161 0
w 180 -179 161 0
w 180 -179 -161 1
w 181 180 162 0
w 181 180 -162 0
w 181 -180 162 0
w 181 -180 -162 1
w 182 181 163 0
w 182 181 -163 1
w 182 -181 163 1
w 182 -181 -163 1
w 183 182 164 1
w 183 182 -164 1
w 183 -182 164 1
w 183 -182 -164 0
w 184 183 165 0
w 184 183 -165 0
w 184 -183 165 1
w 184 -183 -165 1
w 185 184 166 1
w 185 184 -166 0
w 185 -184 166 1
w 185 -184 -166 0
w 186 185 167 0.633013
w 186 185 -167 0.121796
w 186 -185 167 0.0525634
w 186 -185 -167 0.528649
w 187 186 168 0
w 187 186 -168 1
w 187 -186 168 0
w 187 -186 -168 1
w 188 187 169 1
w 188 187 -169 0
w 188 -187 169 1
w 188 -187 -169 0
w 189 188 170 1
w 189 188 -170 1
w 189 -188 170 0
w 189 -188 -170 1
w 190 189 171 1
w 190 189 -171 1
w 190 -189 171 0
w 190 -189 -171 0
w 191 172 1
w 191 -172 0
w 192 191 173 1
w 192 191 -173 1
w 192 -191 173 1
w 192 -191 -173 0
w 193 192 174 0.780217
w 193 192 -174 0.412954
w 193 -192 174 0.327186
w 193 -192 -174 0.131294
w 194 193 175 0.978022
w 194 193 -175 0.157681
w 194 -193 175 0.374861
w 194 -193 -175 0.662197
w 195 194 176 1
w 195 194 -176 0
w 195 -194 176 0
w 195 -194 -176 0
w 196 195 177 0.564244
w 196 195 -177 0.254677
w 196 -195 177 0.21592
w 196 -195 -177 0.0270817
w 197 196 178 0
w 197 196 -178 1
w 197 -196 178 1
w 197 -196 -178 1
w 198 197 179 0.0111656
w 198 197 -179 0.0605822
w 198 -197 179 0.94639
w 198 -197 -179 0.669587
w 199 198 180 0
w 199 198 -180 1
w 199 -198 180 1
w 199 -198 -180 1
w 200 199 181 1
w 200 199 -181 1
w 200 -199 181 0
w 200 -199 -181 1
w 201 200 182 0
w 201 200 -182 0
w 201 -200 182 1
w 201 -200 -182 0
w 202 201 183 0
w 202 201 -183 0
w 202 -201 183 0
w 202 -201 -183 1
w 203 202 184 1
w 203 202 -184 0
w 203 -202 184 1
w 203 -202 -184 0
w 204 203 185 1
w 204 203 -185 0
w 204 -203 185 0
w 204 -203 -185 1
w 205 204 186 1
w 205 204 -186 0
w 205 -204 186 0
w 205 -204 -186 1
w 206 205 187 0.168988
w 206 205 -187 0.0903638
w 206 -205 187 0.894995
w 206 -205 -187 0.881321
w 207 206 188 1
w 207 206 -188 0
w 207 -206 188 1
w 207 -206 -188 0
w 208 207 189 0
w 208 207 -189 0
w 208 -207 189 1
w 208 -207 -189 0
w 209 208 190 0.263472
w 209 208 -190 0.186218
w 209 -208 190 0.601482
w 209 -208 -190 0.0726924
w 210 191 1
w 210 -191 0
w 211 210 192 0.843453
w 211 210 -192 0.573257
w 211 -210 192 0.233271
w 211 -210 -192 0.890193
w 212 211 193 1
w 212 211 -193 0
w 212 -211 193 1
w 212 -211 -193 1
w 213 212 194 0
w 213 212 -194 0
w 213 -212 194 0
w 213 -212 -194 1
w 214 213 195 0
w 214 213 -195 1
w 214 -213 195 0
w 214 -213 -195 1
w 215 214 196 0.558654
w 215 214 -196 0.909458
w 215 -214 196 0.605011
w 215 -214 -196 0.520208
w 216 215 197 0
w 216 215 -197 1
w 216 -215 197 1
w 216 -215 -197 0
w 217 216 198 0
w 217 216 -198 1
w 217 -216 198 1
w 217 -216 -198 1
w 218 217 199 1
w 218 217 -199 1
w 218 -217 199 0
w 218 -217 -199 1
w 219 218 200 0.253595
w 219 218 -200 0.772282
w 219 -218 200 0.0351457
w 219 -218 -200 0.312949
w 220 219 201 1
w 220 219 -201 0
w 220 -219 201 0
w 220 -219 -201 1
w 221 220 202 0.072146
w 221 220 -202 0.206988
w 221 -220 202 0.795688
w 221 -220 -202 0.677157
w 222 221 203 1
w 222 221 -203 0
w 222 -221 203 1
w 222 -221 -203 0
w 223 222 204 0.22315
w 223 222 -204 0.402359
w 223 -222 204 0.977576
w 223 -222 -204 0.170672
w 224 223 205 0.0440907
w 224 223 -205 0.461937
w 224 -223 205 0.603112
w 224 -223 -205 0.119651
w 225 224 206 0
w 225 224 -206 1
w 225 -224 206 0
w 225 -224 -206 1
w 226 225 207 1
w 226 225 -207 0
w 226 -225 207 0
w 226 -225 -207 1
w 227 226 208 0
w 227 226 -208 0
w 227 -226 208 0
w 227 -226 -208 1
w 228 227 209 0
w 228 227 -209 1
w 228 -227 209 0
w 228 -227 -209 1
w 229 210 1
w 229 -210 0
w 230 229 211 0
w 230 229 -211 1
w 230 -229 211 0
w 230 -229 -211 1
w 231 230 212 0.0221508
w 231 230 -212 0.374083
w 231 -230 212 0.111501
w 231 -230 -212 0.470679
w 232 231 213 0.484747
w 232 231 -213 0.69149
w 232 -231 213 0.534967
w 232 -231 -213 0.170942
w 233 232 214 1
w 233 232 -214 1
w 233 -232 214 0
w 233 -232 -214 0
w 234 233 215 0
w 234 233 -215 1
w 234 -233 215 1
w 234 -233 -215 0
w 235 234 216 0
w 235 234 -216 1
w 235 -234 216 1
w 235 -234 -216 1
w 236 235 217 1
w 236 235 -217 0
w 236 -235 217 0
w 236 -235 -217 0
w 237 236 218 0
w 237 236 -218 0
w 237 -236 218 1
w 237 -236 -218 1
w 238 237 219 0
w 238 237 -219 1
w 238 -237 219 1
w 238 -237 -219 1
w 239 238 220 0
w 239 238 -220 1
w 239 -238 220 1
w 239 -238 -220 1
w 240 239 221 0
w 240 239 -221 1
w 240 -239 221 0
w 240 -239 -221 1
w 241 240 222 0
w 241 240 -222 1
w 241 -240 222 1
w 241 -240 -222 1
w 242 241 223 0.504624
w 242 241 -223 0.791498
w 242 -241 223 0.499629
w 242 -241 -223 0.830607
w 243 242 224 0
w 243 242 -224 1
w 243 -242 224 0
w 243 -242 -224 1
w 244 243 225 1
w 244 243 -225 1
w 244 -243 225 0
w 244 -243 -225 0
w 245 244 226 0
w 245 244 -226 0
w 245 -244 226 0
w 245 -244 -226 1
w 246 245 227 1
w 246 245 -227 1
w 246 -245 227 1
w 246 -245 -227 0
w 247 246 228 0.763593
w 247 246 -228 0.487007
w 247 -246 228 0.241797
w 247 -246 -228 0.889994
w 248 229 1
w 248 -229 0
w 249 248 230 1
w 249 248 -230 0
w 249 -248 230 1
w 249 -248 -230 0
w 250 249 231 0
w 250 249 -231 0
w 250 -249 231 0
w 250 -249 -231 1
w 251 250 232 0.435293
w 251 250 -232 0.443287
w 251 -250 232 0.127881
w 251 -250 -232 0.958186
w 252 251 233 0
w 252 251 -233 0
w 252 -251 233 0
w 252 -251 -233 1
w 253 252 234 1
w 253 252 -234 0
w 253 -252 234 0
w 253 -252 -234 0
w 254 253 235 0
w 254 253 -235 1
w 254 -253 235 1
w 254 -253 -235 1
w 255 254 236 0.412601
w 255 254 -236 0.265721
w 255 -254 236 0.418628
w 255 -254 -236 0.637826
w 256 255 237 1
w 256 255 -237 0
w 256 -255 237 1
w 256 -255 -237 1
w 257 256 238 0.205383
w 257 256 -238 0.497015
w 257 -256 238 0.406212
w 257 -256 -238 0.333264
w 258 257 239 1
w 258 257 -239 0
w 258 -257 239 0
w 258 -257 -239 1
w 259 258 240 0
w 259 258 -240 1
w 259 -258 240 0
w 259 -258 -240 0
w 260 259 241 0.897991
w 260 259 -241 0.365077
w 260 -259 241 0.397619
w 260 -259 -241 0.915974
w 261 260 242 1
w 261 260 -242 0
w 261 -260 242 1
w 261 -260 -242 0
w 262 261 243 0.630986
w 262 261 -243 0.526167
w 262 -261 243 0.977891
w 262 -261 -243 0.908283
w 263 262 244 0
w 263 262 -244 1
w 263 -262 244 0
w 263 -262 -244 0
w 264 263 245 1
w 264 263 -245 0
w 264 -263 245 1
w 264 -263 -245 1
w 265 264 246 1
w 265 264 -246 1
w 265 -264 246 0
w 265 -264 -246 1
w 266 265 247 0
w 266 265 -247 0
w 266 -265 247 1
w 266 -265 -247 0
w 267 248 0
w 267 -248 1
w 268 267 249 1
w 268 267 -249 0
w 268 -267 249 1
w 268 -267 -249 1
w 269 268 250 1
w 269 268 -250 0
w 269 -268 250 1
w 269 -268 -250 0
w 270 269 251 0
w 270 269 -251 0
w 270 -269 251 0
w 270 -269 -251 1
w 271 270 252 0.348387
w 271 270 -252 0.724273
w 271 -270 252 0.589919
w 271 -270 -252 0.287368
w 272 271 253 0
w 272 271 -253 1
w 272 -271 253 0
w 272 -271 -253 0
w 273 272 254 1
w 273 272 -254 1
w 273 -272 254 1
w 273 -272 -254 0
w 274 273 255 1
w 274 273 -255 0
w 274 -273 255 0
w 274 -273 -255 0
w 275 274 256 0.767153
w 275 274 -256 0.59153
w 275 -274 256 0.14893
w 275 -274 -256 0.901035
w 276 275 257 0
w 276 275 -257 1
w 276 -275 257 1
w 276 -275 -257 1
w 277 276 258 0
w 277 276 -258 1
w 277 -276 258 1
w 277 -276 -258 1
w 278 277 259 1
w 278 277 -259 0
w 278 -277 259 0
w 278 -277 -259 1
w 279 278 260 0.848547
w 279 278 -260 0.693728
w 279 -278 260 0.704882
w 279 -278 -260 0.0498833
w 280 279 261 1
w 280 279 -261 0
w 280 -279 261 0
w 280 -279 -261 1
w 281 280 262 0
w 281 280 -262 0
w 281 -280 262 0
w 281 -280 -262 1
w 282 281 263 0.0590536
w 282 281 -263 0.798747
w 282 -281 263 0.145743
w 282 -281 -263 0.937766
w 283 282 264 0
w 283 282 -264 1
w 283 -282 264 1
w 283 -282 -264 0
w 284 283 265 0
w 284 283 -265 1
w 284 -283 265 1
w 284 -283 -265 1
w 285 284 266 1
w 285 284 -266 0
w 285 -284 266 0
w 285 -284 -266 1
w 286 267 1
w 286 -267 0
w 287 286 268 0
w 287 286 -268 1
w 287 -286 268 0
w 287 -286 -268 0
w 288 287 269 0
w 288 287 -269 1
w 288 -287 269 1
w 288 -287 -269 1
w 289 288 270 1
w 289 288 -270 0
w 289 -288 270 1
w 289 -288 -270 1
w 290 289 271 0
w 290 289 -271 1
w 290 -289 271 0
w 290 -289 -271 1
w 291 290 272 0.798334
w 291 290 -272 0.401404
w 291 -290 272 0.13036
w 291 -290 -272 0.862915
w 292 291 273 0.149619
w 292 291 -273 0.632377
w 292 -291 273 0.224426
w 292 -291 -273 0.840398
w 293 292 274 1
w 293 292 -274 1
w 293 -292 274 0
w 293 -292 -274 1
w 294 293 275 0
w 294 293 -275 1
w 294 -293 275 1
w 294 -293 -275 1
w 295 294 276 0
w 295 294 -276 0
w 295 -294 276 1
w 295 -294 -276 1
w 296 295 277 0
w 296 295 -277 1
w 296 -295 277 1
w 296 -295 -277 1
w 297 296 278 0.10477
w 297 296 -278 0.414514
w 297 -296 278 0.352743
w 297 -296 -278 0.23513
w 298 297 279 0
w 298 297 -279 1
w 298 -297 279 0
w 298 -297 -279 1
w 299 298 280 0
w 299 298 -280 0
w 299 -298 280 1
w 299 -298 -280 0
w 300 299 281 0.438757
w 300 299 -281 0.683292
w 300 -299 281 0.337232
w 300 -299 -281 0.257663
w 301 300 282 0
w 301 300 -282 0
w 301 -300 282 0
w 301 -300 -282 1
w 302 301 283 0
w 302 301 -283 1
w 302 -301 283 1
w 302 -301 -283 0
w 303 302 284 0.20977
w 303 302 -284 0.915261
w 303 -302 284 0.273503
w 303 -302 -284 0.562513
w 304 303 285 1
w 304 303 -285 1
w 304 -303 285 0
w 304 -303 -285 0
w 305 286 0
w 305 -286 1
w 306 305 287 1
w 306 305 -287 0
w 306 -305 287 0
w 306 -305 -287 1
w 307 306 288 1
w 307 306 -288 0
w 307 -306 288 1
w 307 -306 -288 1
w 308 307 289 0
w 308 307 -289 1
w 308 -307 289 1
w 308 -307 -289 1
w 309 308 290 1
w 309 308 -290 0
w 309 -308 290 1
w 309 -308 -290 1
w 310 309 291 0.728454
w 310 309 -291 0.360476
w 310 -309 291 0.000495883
w 310 -309 -291 0.279386
w 311 310 292 0
w 311 310 -292 0
w 311 -310 292 0
w 311 -310 -292 1
w 312 311 293 0.497519
w 312 311 -293 0.279765
w 312 -311 293 0.181909
w 312 -311 -293 0.837645
w 313 312 294 1
w 313 312 -294 0
w 313 -312 294 1
w 313 -312 -294 0
w 314 313 295 1
w 314 313 -295 0
w 314 -313 295 0
w 314 -313 -295 0
w 315 314 296 1
w 315 314 -296 0
w 315 -314 296 1
w 315 -314 -296 0
w 316 315 297 1
w 316 315 -297 0
w 316 -315 297 0
w 316 -315 -297 1
w 317 316 298 1
w 317 316 -298 1
w 317 -316 298 1
w 317 -316 -298 0
w 318 317 299 0
w 318 317 -299 1
w 318 -317 299 0
w 318 -317 -299 0
w 319 318 300 0.0171685
w 319 318 -300 0.664268
w 319 -318 300 0.357696
w 319 -318 -300 0.654945
w 320 319 301 0
w 320 319 -301 0
w 320 -319 301 1
w 320 -319 -301 0
w 321 320 302 0.231179
w 321 320 -302 0.593233
w 321 -320 302 0.915083
w 321 -320 -302 0.489019
w 322 321 303 0.683723
w 322 321 -303 0.107334
w 322 -321 303 0.915493
w 322 -321 -303 0.731749
w 323 322 304 0.612506
w 323 322 -304 0.5199
w 323 -322 304 0.603456
w 323 -322 -304 0.605439
w 324 305 1
w 324 -305 0
w 325 324 306 0.809644
w 325 324 -306 0.0643404
w 325 -324 306 0.853201
w 325 -324 -306 0.826812
w 326 325 307 1
w 326 325 -307 0
w 326 -325 307 0
w 326 -325 -307 0
w 327 326 308 1
w 327 326 -308 0
w 327 -326 308 0
w 327 -326 -308 1
w 328 327 309 0
w 328 327 -309 0
w 328 -327 309 1
w 328 -327 -309 0
w 329 328 310 0.709348
w 329 328 -310 0.933579
w 329 -328 310 0.524113
w 329 -328 -310 0.498704
w 330 329 311 0
w 330 329 -311 0
w 330 -329 311 0
w 330 -329 -311 1
w 331 330 312 0
w 331 330 -312 0
w 331 -330 312 1
w 331 -330 -312 0
w 332 331 313 0.810183
w 332 331 -313 0.0937576
w 332 -331 313 0.236045
w 332 -331 -313 0.83918
w 333 332 314 1
w 333 332 -314 1
w 333 -332 314 0
w 333 -332 -314 0
w 334 333 315 0
w 334 333 -315 0
w 334 -333 315 0
w 334 -333 -315 1
w 335 334 316 0
w 335 334 -316 0
w 335 -334 316 0
w 335 -334 -316 1
w 336 335 317 0
w 336 335 -317 1
w 336 -335 317 1
w 336 -335 -317 0
w 337 336 318 0.128545
w 337 336 -318 0.23797
w 337 -336 318 0.86583
w 337 -336 -318 0.21012
w 338 337 319 0
w 338 337 -319 1
w 338 -337 319 0
w 338 -337 -319 1
w 339 338 320 0.41886
w 339 338 -320 0.480488
w 339 -338 320 0.017323
w 339 -338 -320 0.504949
w 340 339 321 0.368719
w 340 339 -321 0.704034
w 340 -339 321 0.334586
w 340 -339 -321 0.828755
w 341 340 322 0
w 341 340 -322 1
w 341 -340 322 0
w 341 -340 -322 0
w 342 341 323 1
w 342 341 -323 0
w 342 -341 323 1
w 342 -341 -323 1
w 343 324 0
w 343 -324 1
w 344 343 325 0.482378
w 344 343 -325 0.474705
w 344 -343 325 0.0463013
w 344 -343 -325 0.102495
w 345 344 326 0
w 345 344 -326 0
w 345 -344 326 1
w 345 -344 -326 0
w 346 345 327 1
w 346 345 -327 0
w 346 -345 327 0
w 346 -345 -327 1
w 347 346 328 0.549283
w 347 346 -328 0.569289
w 347 -346 328 0.393864
w 347 -346 -328 0.46099
w 348 347 329 1
w 348 347 -329 1
w 348 -347 329 1
w 348 -347 -329 0
w 349 348 330 0
w 349 348 -330 1
w 349 -348 330 1
w 349 -348 -330 0
w 350 349 331 0.975561
w 350 349 -331 0.285229
w 350 -349 331 0.309508
w 350 -349 -331 0.0218625
w 351 350 332 1
w 351 350 -332 1
w 351 -350 332 0
w 351 -350 -332 1
w 352 351 333 0.785527
w 352 351 -333 0.530823
w 352 -351 333 0.147199
w 352 -351 -333 0.000223533
w 353 352 334 1
w 353 352 -334 0
w 353 -352 334 1
w 353 -352 -334 1
w 354 353 335 1
w 354 353 -335 0
w 354 -353 335 0
w 354 -353 -335 1
w 355 354 336 0
w 355 354 -336 1
w 355 -354 336 0
w 355 -354 -336 1
w 356 355 337 0.678435
w 356 355 -337 0.282135
w 356 -355 337 0.273586
w 356 -355 -337 0.987943
w 357 356 338 0
w 357 356 -338 0
w 357 -356 338 0
w 357 -356 -338 1
w 358 357 339 0.54925
w 358 357 -339 0.793218
w 358 -357 339 0.48229
w 358 -357 -339 0.696449
w 359 358 340 0.753647
w 359 358 -340 0.73238
w 359 -358 340 0.342949
w 359 -358 -340 0.594293
w 360 359 341 1
w 360 359 -341 0
w 360 -359 341 0
w 360 -359 -341 1
w 361 360 342 1
w 361 360 -342 1
w 361 -360 342 0
w 361 -360 -342 1